60
872
5
75
37
92
32
65
0 4
0 5
0 11
0 16
0 20
0 24
0 25
0 27
0 28
0 30
0 31
0 32
0 33
0 34
0 38
0 41
0 42
0 44
0 46
0 48
0 53
0 54
0 55
0 56
0 57
0 58
1 7
1 8
1 9
1 10
1 11
1 13
1 17
1 18
1 19
1 20
1 21
1 25
1 26
1 27
1 28
1 29
1 32
1 35
1 36
1 37
1 38
1 45
1 46
1 48
1 51
1 54
1 55
1 56
1 57
1 58
1 59
2 4
2 5
2 6
2 7
2 8
2 11
2 15
2 17
2 18
2 20
2 24
2 26
2 27
2 30
2 33
2 35
2 36
2 37
2 38
2 40
2 41
2 42
2 44
2 46
2 49
2 53
2 57
2 58
2 59
3 7
3 8
3 9
3 10
3 11
3 13
3 14
3 15
3 16
3 17
3 19
3 24
3 34
3 43
3 44
3 47
3 48
3 51
3 55
3 56
4 6
4 10
4 11
4 16
4 17
4 18
4 19
4 21
4 25
4 26
4 28
4 29
4 31
4 32
4 33
4 34
4 35
4 37
4 38
4 39
4 43
4 48
4 50
4 51
4 52
4 53
4 54
4 57
4 58
4 59
5 7
5 9
5 10
5 11
5 12
5 13
5 14
5 17
5 23
5 25
5 26
5 27
5 29
5 30
5 34
5 35
5 37
5 38
5 39
5 40
5 41
5 42
5 43
5 49
5 54
5 57
5 59
6 12
6 21
6 23
6 30
6 34
6 37
6 39
6 41
6 42
6 43
6 44
6 48
6 49
6 50
6 51
6 52
6 53
6 54
6 55
6 56
7 11
7 12
7 14
7 15
7 16
7 18
7 19
7 20
7 21
7 22
7 31
7 32
7 34
7 35
7 36
7 40
7 41
7 46
7 51
7 53
7 54
7 59
8 9
8 10
8 11
8 12
8 13
8 15
8 16
8 17
8 21
8 24
8 25
8 28
8 30
8 35
8 36
8 41
8 42
8 43
8 45
8 46
8 47
8 50
8 52
8 54
8 55
8 57
8 59
9 10
9 12
9 18
9 20
9 21
9 23
9 25
9 26
9 27
9 28
9 30
9 32
9 38
9 42
9 43
9 49
9 54
9 55
9 57
9 58
9 59
10 12
10 13
10 15
10 19
10 21
10 26
10 28
10 29
10 32
10 33
10 34
10 36
10 38
10 39
10 41
10 42
10 43
10 46
10 48
10 49
10 52
10 53
10 54
10 59
11 12
11 13
11 14
11 16
11 21
11 23
11 24
11 29
11 30
11 33
11 35
11 36
11 37
11 38
11 40
11 41
11 42
11 43
11 46
11 47
11 49
11 50
11 51
11 52
11 55
11 56
11 57
11 59
12 14
12 15
12 22
12 29
12 30
12 32
12 34
12 36
12 37
12 39
12 45
12 47
12 49
12 54
12 56
12 58
12 59
13 14
13 16
13 18
13 21
13 22
13 23
13 32
13 33
13 35
13 36
13 37
13 40
13 41
13 47
13 48
13 49
13 51
13 55
13 58
14 15
14 16
14 22
14 23
14 27
14 28
14 29
14 34
14 35
14 38
14 39
14 42
14 43
14 44
14 45
14 47
14 48
14 54
14 57
14 58
15 16
15 17
15 19
15 20
15 22
15 23
15 24
15 26
15 27
15 28
15 34
15 36
15 37
15 38
15 40
15 41
15 43
15 51
15 52
15 53
15 56
15 57
15 58
15 59
16 18
16 19
16 20
16 21
16 22
16 23
16 24
16 26
16 27
16 30
16 32
16 33
16 35
16 37
16 40
16 41
16 43
16 47
16 49
16 52
16 55
17 19
17 24
17 25
17 26
17 27
17 28
17 29
17 31
17 33
17 34
17 35
17 36
17 37
17 38
17 40
17 41
17 42
17 43
17 44
17 46
17 48
17 51
17 52
17 53
17 56
17 57
17 59
18 19
18 20
18 24
18 25
18 29
18 31
18 33
18 35
18 36
18 38
18 39
18 42
18 43
18 44
18 49
18 52
18 53
18 54
18 55
18 58
19 20
19 23
19 25
19 26
19 27
19 28
19 29
19 30
19 34
19 35
19 36
19 37
19 38
19 41
19 43
19 46
19 48
19 51
19 53
19 54
19 56
19 57
19 58
19 59
20 21
20 22
20 23
20 24
20 28
20 30
20 31
20 32
20 33
20 34
20 36
20 38
20 40
20 41
20 42
20 43
20 44
20 47
20 52
20 56
20 59
21 26
21 27
21 30
21 31
21 35
21 36
21 37
21 39
21 40
21 42
21 45
21 46
21 48
21 51
21 53
21 55
21 57
22 24
22 25
22 28
22 29
22 31
22 32
22 35
22 36
22 38
22 39
22 42
22 43
22 45
22 47
22 50
22 51
22 55
22 56
22 57
22 59
23 24
23 29
23 31
23 35
23 36
23 37
23 38
23 40
23 41
23 43
23 45
23 48
23 50
23 53
23 55
23 56
23 57
23 58
24 25
24 28
24 29
24 32
24 36
24 39
24 40
24 42
24 43
24 44
24 46
24 49
24 52
24 53
24 54
24 56
24 57
24 58
24 59
25 29
25 30
25 33
25 35
25 36
25 38
25 39
25 41
25 43
25 45
25 46
25 47
25 48
25 49
25 53
25 54
25 56
25 59
26 27
26 29
26 30
26 32
26 37
26 50
26 51
26 52
26 54
26 55
26 56
26 59
27 28
27 31
27 34
27 35
27 40
27 41
27 45
27 46
27 48
27 49
27 50
27 54
27 56
28 34
28 36
28 37
28 38
28 39
28 40
28 41
28 43
28 44
28 45
28 46
28 48
28 49
28 52
28 53
28 54
28 56
28 57
28 58
29 31
29 33
29 34
29 37
29 38
29 42
29 44
29 47
29 49
29 53
29 54
29 58
29 59
30 32
30 35
30 37
30 38
30 43
30 45
30 46
30 47
30 48
30 50
30 52
30 57
30 58
31 33
31 35
31 37
31 38
31 39
31 40
31 41
31 42
31 46
31 49
31 51
31 52
31 55
31 56
31 57
32 33
32 35
32 36
32 37
32 40
32 41
32 42
32 43
32 44
32 45
32 46
32 49
32 51
32 52
32 54
32 55
32 56
32 58
33 34
33 38
33 39
33 41
33 42
33 43
33 45
33 47
33 49
33 50
33 51
33 55
33 58
34 35
34 36
34 38
34 43
34 45
34 46
34 47
34 48
34 49
34 50
34 52
34 53
34 54
34 55
34 56
34 57
35 41
35 43
35 45
35 47
35 48
35 49
35 51
35 52
35 53
35 54
35 55
35 57
35 58
35 59
36 37
36 40
36 41
36 48
36 49
36 54
36 56
36 57
36 58
36 59
37 39
37 41
37 44
37 45
37 47
37 48
37 49
37 53
37 57
37 58
38 39
38 40
38 42
38 43
38 44
38 51
38 54
38 55
38 56
38 58
38 59
39 42
39 47
39 52
39 55
39 56
39 57
39 58
39 59
40 42
40 43
40 47
40 48
40 49
40 50
40 51
40 53
40 55
40 57
40 58
40 59
41 45
41 47
41 48
41 49
41 50
41 53
41 56
41 58
42 43
42 44
42 45
42 46
42 47
42 53
42 54
42 57
42 59
43 44
43 45
43 46
43 47
43 48
43 49
43 50
43 54
43 55
43 58
44 45
44 48
44 52
44 54
44 58
45 49
45 50
45 51
45 52
45 53
45 55
45 56
46 47
46 50
46 51
46 52
46 54
46 56
46 57
46 58
46 59
47 48
47 49
47 51
47 55
47 56
47 59
48 49
48 50
48 51
48 53
48 54
48 55
48 56
48 58
49 50
49 53
49 55
49 56
49 59
50 56
50 58
50 59
51 53
51 55
51 58
51 59
52 54
52 55
53 57
53 58
53 59
54 57
54 58
55 56
55 59
56 58
56 59
38 15 20 5 7 4 16 56 26 52 49 3
47 40 0 29 44 22 14 28 31 58 1 27
24 10 43 45 19 12 8 30 57 37 46 17
9 2 55 36 51 54 33 59 53 39 50 21
13 34 23 42 18 32 41 48 35 6 25 11
